NAME: tsp30-48
TYPE: TSP
DIMENSION: 30
EDGE_WEIGHT_TYPE: EUC_2D
NODE_COORD_SECTION
0 44 18
1 67 66
2 54 66
3 58 84
4 17 16
5 4 71
6 1 50
7 85 90
8 26 1
9 64 27
10 93 60
11 67 57
12 65 34
13 0 86
14 44 71
15 29 54
16 88 89
17 10 23
18 5 20
19 31 37
20 4 84
21 84 74
22 5 16
23 84 39
24 36 65
25 93 50
26 95 71
27 66 10
28 13 86
29 58 96
EOF